# Circle Problem
param d := 0.05; 
param n := 5; 
param radius := 2.00; 
param v0 := 
1 5.00
2 5.00
3 5.00
4 5.00
5 5.00
;
param cap := 
1 3.14159
2 4.39823
3 5.65487
4 0.62832
5 1.88496
;
param x0 := 
1 2.00
2 0.62
3 -1.62
4 -1.62
5 0.62
;
param y0 := 
1 -0.00
2 1.90
3 1.18
4 -1.18
5 -1.90
;
